* ENCODING=ISO-8859-1
NAME          CPLEX
ROWS
 N  obj1    
 G  c1      
 G  c2      
 G  c3      
 G  c4      
 G  c5      
 G  c6      
 G  c7      
 G  c8      
 G  c9      
 G  c10     
 G  c11     
 G  c12     
 G  c13     
 G  c14     
 G  c15     
 G  c16     
 G  c17     
 G  c18     
 G  c19     
 G  c20     
 G  c21     
 G  c22     
 G  c23     
 G  c24     
 G  c25     
 G  c26     
 G  c27     
 G  c28     
 G  c29     
 G  c30     
COLUMNS
    MARK0000  'MARKER'                 'INTORG'
    x1        obj1                            1
    x1        c10                           907
    x1        c22                           998
    x2        obj1                            1
    x2        c6                            280
    x2        c12                           862
    x2        c13                           200
    x2        c21                           979
    x3        obj1                            1
    x3        c3                            469
    x3        c23                           821
    x3        c28                           475
    x3        c29                           190
    x4        obj1                            1
    x4        c1                            685
    x4        c12                           425
    x4        c13                           814
    x4        c25                           795
    x4        c27                           821
    x5        obj1                            1
    x5        c11                           155
    x5        c26                           330
    x5        c29                           275
    x6        obj1                            1
    x6        c6                            822
    x6        c9                            470
    x6        c10                           825
    x6        c23                           662
    x7        obj1                            1
    x7        c4                            308
    x7        c5                            651
    x7        c8                            363
    x7        c9                            586
    x7        c27                           263
    x8        obj1                            1
    x8        c1                            604
    x8        c2                            315
    x8        c14                           677
    x8        c16                           798
    x9        obj1                            1
    x9        c3                            454
    x9        c16                           137
    x10       obj1                            1
    x10       c5                            958
    x10       c9                            479
    x10       c26                           165
    x11       obj1                            1
    x11       c1                            159
    x11       c3                            837
    x11       c8                            426
    x12       obj1                            1
    x12       c26                           847
    x13       obj1                            1
    x13       c2                            226
    x13       c23                           818
    x14       obj1                            1
    x14       c1                            431
    x14       c8                            518
    x14       c11                           218
    x14       c21                           908
    x14       c28                           514
    x14       c29                           299
    x15       obj1                            1
    x15       c2                            997
    x15       c7                            329
    x15       c9                            297
    x15       c24                           117
    x16       obj1                            1
    x16       c12                           452
    x16       c17                           166
    x16       c28                           613
    x17       obj1                            1
    x17       c4                            585
    x17       c27                           159
    x18       obj1                            1
    x18       c28                           748
    x19       obj1                            1
    x19       c2                            671
    x19       c16                           966
    x20       obj1                            1
    x20       c6                            194
    x21       obj1                            1
    x21       c2                            245
    x21       c12                           714
    x21       c26                           101
    x21       c29                           127
    x22       obj1                            1
    x22       c1                            782
    x22       c3                            167
    x22       c5                            685
    x22       c13                           385
    x22       c26                           228
    x23       obj1                            1
    x23       c1                            680
    x23       c7                            160
    x23       c10                           824
    x23       c19                           719
    x23       c20                           222
    x24       obj1                            1
    x24       c18                           395
    x24       c20                           488
    x24       c21                           135
    x25       obj1                            1
    x25       c5                            209
    x25       c11                           421
    x25       c17                           833
    x25       c18                           579
    x26       obj1                            1
    x27       obj1                            1
    x27       c28                           676
    x27       c29                           430
    x28       obj1                            1
    x28       c4                            980
    x28       c15                           832
    x29       obj1                            1
    x29       c20                           256
    x30       obj1                            1
    x30       c9                            751
    x30       c18                           969
    x30       c23                           126
    x31       obj1                            1
    x31       c6                            226
    x31       c13                           158
    x31       c25                           329
    x32       obj1                            1
    x32       c12                           616
    x32       c17                           632
    x33       obj1                            1
    x33       c6                            412
    x33       c20                           451
    x33       c24                           909
    x33       c28                           858
    x34       obj1                            1
    x34       c3                            385
    x34       c15                           542
    x34       c20                           754
    x34       c26                           605
    x35       obj1                            1
    x35       c9                            215
    x36       obj1                            1
    x36       c2                            834
    x36       c5                            470
    x36       c9                            886
    x36       c21                           878
    x37       obj1                            1
    x37       c7                            731
    x37       c15                           794
    x37       c16                           840
    x38       obj1                            1
    x38       c8                            724
    x38       c19                           864
    x38       c22                           501
    x38       c25                           926
    x38       c26                           738
    x39       obj1                            1
    x39       c18                           390
    x39       c19                           557
    x39       c24                           742
    x39       c30                           699
    x40       obj1                            1
    x40       c7                            779
    x40       c12                           210
    x40       c13                           494
    x40       c20                           443
    x40       c24                           123
    x41       obj1                            1
    x41       c2                            717
    x41       c29                           820
    x41       c30                           418
    x42       obj1                            1
    x42       c15                           635
    x42       c24                           830
    x42       c27                           524
    x42       c28                           591
    x43       obj1                            1
    x43       c6                            726
    x43       c8                            669
    x43       c18                           733
    x43       c22                           390
    x43       c29                           330
    x43       c30                           899
    x44       obj1                            1
    x44       c25                           158
    x44       c28                           484
    x45       obj1                            1
    x45       c14                           943
    x46       obj1                            1
    x46       c8                            815
    x46       c9                            508
    x46       c11                           756
    x46       c18                           910
    x46       c19                           483
    x47       obj1                            1
    x47       c3                            678
    x47       c13                           825
    x47       c15                           265
    x47       c19                           535
    x48       obj1                            1
    x48       c7                            643
    x48       c18                           469
    x49       obj1                            1
    x49       c7                            519
    x49       c10                           115
    x49       c19                           636
    x49       c23                           374
    x50       obj1                            1
    x50       c9                            258
    x50       c27                           297
    x51       obj1                            1
    x51       c8                            593
    x51       c24                           620
    x52       obj1                            1
    x52       c22                           489
    x53       obj1                            1
    x53       c7                            833
    x53       c24                           771
    x53       c28                           566
    x54       obj1                            1
    x54       c20                           708
    x55       obj1                            1
    x55       c5                            412
    x55       c29                           477
    x56       obj1                            1
    x56       c4                            729
    x56       c13                           386
    x57       obj1                            1
    x57       c3                            486
    x57       c12                           266
    x57       c13                           215
    x57       c17                           848
    x58       obj1                            1
    x58       c5                            392
    x58       c6                            463
    x58       c14                           366
    x58       c16                           967
    x58       c19                           246
    x58       c24                           829
    x58       c29                           689
    x59       obj1                            1
    x59       c6                            674
    x59       c12                           438
    x59       c27                           840
    x60       obj1                            1
    x60       c7                            483
    x60       c8                            316
    MARK0001  'MARKER'                 'INTEND'
RHS
    rhs       c1                           1671
    rhs       c2                           2003
    rhs       c3                           1738
    rhs       c4                           1301
    rhs       c5                           1889
    rhs       c6                           1899
    rhs       c7                           2239
    rhs       c8                           2212
    rhs       c9                           2225
    rhs       c10                          1336
    rhs       c11                           775
    rhs       c12                          1992
    rhs       c13                          1739
    rhs       c14                           993
    rhs       c15                          1534
    rhs       c16                          1854
    rhs       c17                          1240
    rhs       c18                          2223
    rhs       c19                          2020
    rhs       c20                          1661
    rhs       c21                          1450
    rhs       c22                          1189
    rhs       c23                          1401
    rhs       c24                          2471
    rhs       c25                          1104
    rhs       c26                          1507
    rhs       c27                          1452
    rhs       c28                          2763
    rhs       c29                          1819
    rhs       c30                          1008
BOUNDS
 LI bnd       x1        0
 LI bnd       x2        0
 LI bnd       x3        0
 LI bnd       x4        0
 LI bnd       x5        0
 LI bnd       x6        0
 LI bnd       x7        0
 LI bnd       x8        0
 LI bnd       x9        0
 LI bnd       x10       0
 LI bnd       x11       0
 LI bnd       x12       0
 LI bnd       x13       0
 LI bnd       x14       0
 LI bnd       x15       0
 LI bnd       x16       0
 LI bnd       x17       0
 LI bnd       x18       0
 LI bnd       x19       0
 LI bnd       x20       0
 LI bnd       x21       0
 LI bnd       x22       0
 LI bnd       x23       0
 LI bnd       x24       0
 LI bnd       x25       0
 LI bnd       x26       0
 LI bnd       x27       0
 LI bnd       x28       0
 LI bnd       x29       0
 LI bnd       x30       0
 LI bnd       x31       0
 LI bnd       x32       0
 LI bnd       x33       0
 LI bnd       x34       0
 LI bnd       x35       0
 LI bnd       x36       0
 LI bnd       x37       0
 LI bnd       x38       0
 LI bnd       x39       0
 LI bnd       x40       0
 LI bnd       x41       0
 LI bnd       x42       0
 LI bnd       x43       0
 LI bnd       x44       0
 LI bnd       x45       0
 LI bnd       x46       0
 LI bnd       x47       0
 LI bnd       x48       0
 LI bnd       x49       0
 LI bnd       x50       0
 LI bnd       x51       0
 LI bnd       x52       0
 LI bnd       x53       0
 LI bnd       x54       0
 LI bnd       x55       0
 LI bnd       x56       0
 LI bnd       x57       0
 LI bnd       x58       0
 LI bnd       x59       0
 LI bnd       x60       0
ENDATA
